SCIP Status        : solving was interrupted [time limit reached]
Total Time         :    3600.02
  solving          :    3600.01
  presolving       :       0.41 (included in solving)
  reading          :       0.01
  copying          :       0.55 (42 #copies) (minimal 0.00, maximal 0.05, average 0.01)
Original Problem   :
  Problem name     : bbbenchmark/pw09_100.6.cut
  Variables        : 101 (100 binary, 0 integer, 0 implicit integer, 1 continuous)
  Constraints      : 1 initial, 1 maximal
  Objective        : minimize, 1 non-zeros (abs.min = 1, abs.max = 1)
Presolved Problem  :
  Problem name     : t_bbbenchmark/pw09_100.6.cut
  Variables        : 1330 (100 binary, 0 integer, 1181 implicit integer, 49 continuous)
  Constraints      : 1326 initial, 7365 maximal
  Objective        : minimize, 1 non-zeros (abs.min = 1, abs.max = 1)
  Nonzeros         : 11661 constraint, 202 clique table
Presolvers         :   ExecTime  SetupTime  Calls  FixedVars   AggrVars   ChgTypes  ChgBounds   AddHoles    DelCons    AddCons   ChgSides   ChgCoefs
  boundshift       :       0.00       0.00      0          0          0          0          0          0          0          0          0          0
  convertinttobin  :       0.00       0.00      0          0          0          0          0          0          0          0          0          0
  domcol           :       0.00       0.00      1          0          0          0          0          0          0          0          0          0
  dualagg          :       0.00       0.00      0          0          0          0          0          0          0          0          0          0
  dualcomp         :       0.00       0.00      1          0          0          0          0          0          0          0          0          0
  dualinfer        :       0.00       0.00      0          0          0          0          0          0          0          0          0          0
  dualsparsify     :       0.00       0.00      1          0          0          0          0          0          0          0          0          0
  gateextraction   :       0.00       0.00      0          0          0          0          0          0          0          0          0          0
  implics          :       0.00       0.00      2          0          0          0          0          0          0          0          0          0
  inttobinary      :       0.00       0.00      0          0          0          0          0          0          0          0          0          0
  qpkktref         :       0.00       0.00      0          0          0          0          0          0          0          0          0          0
  redvub           :       0.00       0.00      0          0          0          0          0          0          0          0          0          0
  sparsify         :       0.00       0.00      1          0          0          0          0          0          0          0          0          0
  stuffing         :       0.00       0.00      0          0          0          0          0          0          0          0          0          0
  trivial          :       0.00       0.00      4          0          0          0          0          0          0          0          0          0
  tworowbnd        :       0.00       0.00      0          0          0          0          0          0          0          0          0          0
  dualfix          :       0.00       0.00      4          0          0          0          0          0          0          0          0          0
  genvbounds       :       0.00       0.00      0          0          0          0          0          0          0          0          0          0
  probing          :       0.22       0.00      1          0          0          0          0          0          0          0          0          0
  pseudoobj        :       0.00       0.00      1          0          0          0          1          0          0          0          0          0
  symmetry         :       0.00       0.00      0          0          0          0          0          0          0          0          0          0
  vbounds          :       0.00       0.00      1          0          0          0          0          0          0          0          0          0
  varbound         :       0.00       0.00      2          0          0          0          0          0          0          0          0          0
  and              :       0.00       0.00      2          0          0          0          0          0          0          0          0          0
  linear           :       0.01       0.01      2          0          0          0          0          0          0          0          0          0
  logicor          :       0.00       0.00      0          0          0          0          0          0          0          0          0          0
  bounddisjunction :       0.00       0.00      0          0          0          0          0          0          0          0          0          0
  nonlinear        :       0.18       0.00      5          0          0          0          1          0          0       1325          0          0
  benders          :       0.00       0.00      0          0          0          0          0          0          0          0          0          0
  components       :       0.00       0.00      1          0          0          0          0          0          0          0          0          0
  root node        :          -          -      -          0          -          -          7          -          -          -          -          -
Constraints        :     Number  MaxNumber  #Separate #Propagate    #EnfoLP    #EnfoRelax  #EnfoPS    #Check   #ResProp    Cutoffs    DomReds       Cuts    Applied      Conss   Children
  benderslp        :          0          0          0          0     114018          0          0      16779          0          0          0          0          0          0          0
  integral         :          0          0          0          0     114018          0          0      16779          0          0         60          0          0         31     227934
  varbound         :         48         48         34     774134          0          0          0       5072        168          0      70444          0          0          0          0
  and              :       1181       1181     145299     784324          0          0          0       1210     154596          1     505120      19195      16788          0          0
  linear           :         97+       151         34     784564          0          0          0       1208      18586         83    1660128          0          0          0          0
  logicor          :          0+      2334          0      60592          0          0          0          0         12        273          0          0          0          0          0
  bounddisjunction :          0+      3676          0      78200          0          0          0          0          6         61          0          0          0          0          0
  benders          :          0          0          0          0          0          0          0        148          0          0          0          0          0          0          0
  countsols        :          0          0          0          0          0          0          0        148          0          0          0          0          0          0          0
  components       :          0          0          0          0          0          0          0          0          0          0          0          0          0          0          0
Constraint Timings :  TotalTime  SetupTime   Separate  Propagate     EnfoLP     EnfoPS     EnfoRelax   Check    ResProp    SB-Prop
  benderslp        :       0.13       0.00       0.00       0.00       0.11       0.00       0.00       0.02       0.00       0.00
  integral         :      35.44       0.00       0.00       0.00      35.03       0.00       0.00       0.41       0.00       0.00
  varbound         :       1.18       0.00       0.00       1.09       0.00       0.00       0.00       0.08       0.00       0.01
  and              :      65.65       0.00      48.79      16.37       0.00       0.00       0.00       0.17       0.12       0.20
  linear           :      13.68       0.01       0.06      13.55       0.00       0.00       0.00       0.01       0.03       0.02
  logicor          :       1.39       0.00       0.00       1.39       0.00       0.00       0.00       0.00       0.00       0.00
  bounddisjunction :       2.27       0.00       0.00       2.23       0.00       0.00       0.00       0.00       0.00       0.04
  benders          :       0.00       0.00       0.00       0.00       0.00       0.00       0.00       0.00       0.00       0.00
  countsols        :       0.00       0.00       0.00       0.00       0.00       0.00       0.00       0.00       0.00       0.00
  components       :       0.13       0.00       0.00       0.12       0.00       0.00       0.00       0.00       0.00       0.01
Propagators        : #Propagate   #ResProp    Cutoffs    DomReds
  dualfix          :          2          0          0          0
  genvbounds       :          0          0          0          0
  nlobbt           :          0          0          0          0
  obbt             :          0          0          0          0
  probing          :          0          0          0          0
  pseudoobj        :     508232          2          0       1951
  redcost          :     276099          0          0     105909
  rootredcost      :         15          0          0          0
  symmetry         :          0          0          0          0
  vbounds          :     139722          0          0          0
Propagator Timings :  TotalTime  SetupTime   Presolve  Propagate    ResProp    SB-Prop
  dualfix          :       0.00       0.00       0.00       0.00       0.00       0.00
  genvbounds       :       0.38       0.00       0.00       0.38       0.00       0.00
  nlobbt           :       0.00       0.00       0.00       0.00       0.00       0.00
  obbt             :       0.01       0.00       0.00       0.01       0.00       0.00
  probing          :       0.22       0.00       0.22       0.00       0.00       0.00
  pseudoobj        :       0.88       0.00       0.00       0.88       0.00       0.00
  redcost          :      12.34       0.00       0.00      12.34       0.00       0.00
  rootredcost      :       0.58       0.00       0.00       0.58       0.00       0.00
  symmetry         :       0.27       0.00       0.00       0.27       0.00       0.00
  vbounds          :       0.61       0.00       0.00       0.59       0.00       0.02
Conflict Analysis  :       Time      Calls    Success    DomReds  Conflicts   Literals    Reconvs ReconvLits   Dualrays   Nonzeros   LP Iters   (pool size: [10000,10000])
  propagation      :       0.01        335        209          -        280       75.1          0        0.0          -          -          -
  infeasible LP    :       0.06         88         88          -       1830      140.3          0        0.0        148      140.1          0
  bound exceed. LP :      14.80       4581       4396          -      58966      107.2          0        0.0          0        0.0      68282
  strong branching :       0.00          0          0          -          0        0.0          0        0.0          -          -          0
  pseudo solution  :       0.00          0          0          -          0        0.0          0        0.0          -          -          -
  applied globally :       0.29          -          -          0      16980       94.4          -          -        148          -          -
  applied locally  :          -          -          -          0          0        0.0          -          -          0          -          -
Separators         :   ExecTime  SetupTime      Calls  RootCalls    Cutoffs    DomReds  FoundCuts ViaPoolAdd  DirectAdd    Applied ViaPoolApp  DirectApp      Conss
  cut pool         :       3.06          -      30510         56          -          -      35469     413078          -          -          -          -          -    (maximal pool size:       1919)
  aggregation      :      66.78       0.00       6730         34          0          0       3573      10309          0       4266       4266          0          0
  > cmir           :          -          -          -          -          -          -          -      10257          0       4243       4243          0          -
  > flowcover      :          -          -          -          -          -          -          -         52          0         23         23          0          -
  > knapsackcover  :          -          -          -          -          -          -          -          0          0          0          0          0          -
  cgmip            :       0.00       0.00          0          0          0          0          0          0          0          0          0          0          0
  clique           :       0.02       0.00         34         34          0          0          0          0          0          0          0          0          0
  closecuts        :       0.00       0.00          0          0          0          0          0          0          0          0          0          0          0
  convexproj       :       0.00       0.00          0          0          0          0          0          0          0          0          0          0          0
  disjunctive      :       0.00       0.00          0          0          0          0          0          0          0          0          0          0          0
  eccuts           :       0.00       0.00          0          0          0          0          0          0          0          0          0          0          0
  gauge            :       0.00       0.00          0          0          0          0          0          0          0          0          0          0          0
  gomory           :       0.00       0.00          0          0          0          0          0          0          0          0          0          0          0
  > gomorymi       :          -          -          -          -          -          -          -          0          0          0          0          0          -
  > strongcg       :          -          -          -          -          -          -          -          0          0          0          0          0          -
  impliedbounds    :       0.39       0.00       6730         34          0          0         63         10          0          8          8          0          0
  interlattice     :       0.03       0.00          7          7          0          0          7          0          7          7          0          7          0
  interminor       :       0.00       0.00          0          0          0          0          0          0          0          0          0          0          0
  intersub         :       0.05       0.00          1          1          0          0          0          0          0          0          0          0          0
  intobj           :       0.00       0.00          0          0          0          0          0          0          0          0          0          0          0
  mcf              :       0.02       0.00          1          1          0          0          0          0          0          0          0          0          0
  minor            :       0.01       0.00          0          0          0          0          0          0          0          0          0          0          0
  mixing           :       0.07       0.00       6730         34          0          0          0          0          0          0          0          0          0
  oddcycle         :       0.00       0.00          0          0          0          0          0          0          0          0          0          0          0
  rapidlearning    :       0.00       0.00          0          0          0          0          0          0          0          0          0          0          0
  rlt              :       0.00       0.00         10         10          0          0          0          0          0          0          0          0          0
  zerohalf         :      42.25       0.00       6366         20          0          0      31833     402759          0      98151      98151          0          0
Cutselectors       :   ExecTime  SetupTime      Calls  RootCalls   Selected     Forced   Filtered  RootSelec   RootForc   RootFilt 
  hybrid           :       0.51       0.00      23162         34     119220          0     313060        137          0         30
Pricers            :   ExecTime  SetupTime      Calls       Vars
  problem variables:       0.00          -          0          0
Branching Rules    :   ExecTime  SetupTime   BranchLP  BranchExt   BranchPS    Cutoffs    DomReds       Cuts      Conss   Children
  allfullstrong    :       0.00       0.00          0          0          0          0          0          0          0          0
  cloud            :       0.00       0.00          0          0          0          0          0          0          0          0
  distribution     :       0.00       0.00          0          0          0          0          0          0          0          0
  fullstrong       :       0.00       0.00          0          0          0          0          0          0          0          0
  inference        :       0.00       0.00          0          0          0          0          0          0          0          0
  leastinf         :       0.00       0.00          0          0          0          0          0          0          0          0
  lookahead        :       0.00       0.00          0          0          0          0          0          0          0          0
  mostinf          :       0.00       0.00          0          0          0          0          0          0          0          0
  multaggr         :       0.00       0.00          0          0          0          0          0          0          0          0
  nodereopt        :       0.00       0.00          0          0          0          0          0          0          0          0
  pscost           :       0.00       0.00          0          0          0          0          0          0          0          0
  random           :       0.00       0.00          0          0          0          0          0          0          0          0
  relpscost        :      34.70       0.00     114018          0          0          0         60          0         31     227934
  vanillafullstrong:       0.00       0.00          0          0          0          0          0          0          0          0
Primal Heuristics  :   ExecTime  SetupTime      Calls      Found       Best
  LP solutions     :       0.00          -          -          0          0
  relax solutions  :       0.00          -          -          0          0
  pseudo solutions :       0.00          -          -          0          0
  strong branching :       0.00          -          -          0          0
  actconsdiving    :       0.00       0.00          0          0          0
  adaptivediving   :       3.85       0.00         71          0          0
  alns             :       0.93       0.00         13          0          0
  bound            :       0.00       0.00          0          0          0
  clique           :       0.02       0.00          1          0          0
  coefdiving       :       0.00       0.00          0          0          0
  completesol      :       0.00       0.00          0          0          0
  conflictdiving   :      65.93       0.00        489          1          1
  crossover        :       6.62       0.00          5          1          1
  dins             :       0.00       0.00          0          0          0
  distributiondivin:      75.26       0.00        490          0          0
  dps              :       0.00       0.00          0          0          0
  dualval          :       0.00       0.00          0          0          0
  farkasdiving     :       0.02       0.00          0          0          0
  feaspump         :       0.12       0.00          2          1          0
  fixandinfer      :       0.00       0.00          0          0          0
  fracdiving       :      33.30       0.00        490          0          0
  gins             :       0.11       0.00          0          0          0
  guideddiving     :      33.38       0.00        490          1          1
  indicator        :       0.11       0.00          0          0          0
  indicatordiving  :       0.00       0.00          0          0          0
  intdiving        :       0.00       0.00          0          0          0
  intshifting      :       0.92       0.00         93          0          0
  linesearchdiving :      33.78       0.00        490          5          5
  localbranching   :       0.00       0.01          0          0          0
  locks            :       0.00       0.00          1          0          0
  lpface           :       0.13       0.00          0          0          0
  mpec             :      63.18       0.00         11          0          0
  multistart       :       0.00       0.00          0          0          0
  mutation         :       0.00       0.00          0          0          0
  nlpdiving        :      13.87       0.00          3          1          0
  objpscostdiving  :     115.41       0.00        243         91          1
  octane           :       0.00       0.00          0          0          0
  ofins            :       0.11       0.00          0          0          0
  oneopt           :       0.16       0.00         17          0          0
  padm             :       0.00       0.00          0          0          0
  proximity        :       0.00       0.00          0          0          0
  pscostdiving     :      55.37       0.00        490          4          4
  randrounding     :       1.31       0.00      16645          0          0
  rens             :       0.00       0.00          0          0          0
  reoptsols        :       0.00       0.00          0          0          0
  repair           :       0.00       0.00          0          0          0
  rins             :       3.48       0.00         23          0          0
  rootsoldiving    :      16.25       0.00        243         36          1
  rounding         :       1.01       0.00       5075          0          0
  shiftandpropagate:       0.00       0.00          0          0          0
  shifting         :      19.09       0.00       7104          1          1
  simplerounding   :       0.10       0.00          0          0          0
  subnlp           :     124.13       0.00          0          0          0
  trivial          :       0.00       0.00          2          2          2
  trivialnegation  :       0.00       0.00          0          0          0
  trustregion      :       0.00       0.00          0          0          0
  trysol           :       0.21       0.00          0          0          0
  twoopt           :       0.00       0.00          0          0          0
  undercover       :       4.05       0.00          1          1          1
  vbounds          :       0.00       0.00          0          0          0
  veclendiving     :      34.06       0.00        490          0          0
  zeroobj          :       0.00       0.00          0          0          0
  zirounding       :       0.32       0.00       1000          0          0
  other solutions  :          -          -          -          0          -
Diving (single)    :      Calls      Nodes   LP Iters Backtracks  Conflicts   MinDepth   MaxDepth   AvgDepth  RoundSols  NLeafSols  MinSolDpt  MaxSolDpt  AvgSolDpt
  actconsdiving    :          0          -          -          -          -          -          -          -          -          -          -          -          -
  coefdiving       :          0          -          -          -          -          -          -          -          -          -          -          -          -
  conflictdiving   :        489      17526     753658        426       6501         64         91       74.3          0          1         86         86       86.0
  distributiondivin:        490      15378     661041        576      10409         60         93       74.8          0          -          -          -          -
  farkasdiving     :          0          -          -          -          -          -          -          -          -          -          -          -          -
  fracdiving       :        490      73131     344744         96       1277         72        661      193.5          0          -          -          -          -
  guideddiving     :        490      58554     352469         64       2348         67        485      163.9          0          1        153        153      153.0
  indicatordiving  :          0          -          -          -          -          -          -          -          -          -          -          -          -
  linesearchdiving :        490      23780     376014        109       9411         64        111       90.8          0          5         84        101       92.0
  pscostdiving     :        490      20269     593857        508       9022         69         99       85.1          0          4         79         90       86.0
  veclendiving     :        490      18607     365546        411      20947         65         96       79.3          0          -          -          -          -
Diving (adaptive)  :      Calls      Nodes   LP Iters Backtracks  Conflicts   MinDepth   MaxDepth   AvgDepth  RoundSols  NLeafSols  MinSolDpt  MaxSolDpt  AvgSolDpt
  actconsdiving    :          4         82       1355          5         38         68         73       71.2          0          -          -          -          -
  coefdiving       :         15        561       9166         10        403         69         94       81.6          0          -          -          -          -
  conflictdiving   :          0          -          -          -          -          -          -          -          -          -          -          -          -
  distributiondivin:          0          -          -          -          -          -          -          -          -          -          -          -          -
  farkasdiving     :          0          -          -          -          -          -          -          -          -          -          -          -          -
  fracdiving       :         11        856       2701          1         68         79        360      125.2          0          -          -          -          -
  guideddiving     :          8        828       4716          0          0        114        220      153.4          0          -          -          -          -
  indicatordiving  :          0          -          -          -          -          -          -          -          -          -          -          -          -
  linesearchdiving :         20        968      15448          2        359         72         99       89.2          0          -          -          -          -
  pscostdiving     :          4        158       3082          4         44         85         88       86.5          0          -          -          -          -
  veclendiving     :          9        270       3955          3        230         67         87       76.7          0          -          -          -          -
Neighborhoods      :      Calls  SetupTime  SolveTime SolveNodes       Sols       Best       Exp3  EpsGreedy        UCB TgtFixRate  Opt  Inf Node Stal  Sol  Usr Othr Actv
  rens             :          2       0.03       0.08         50          0          0    0.00000   -1.00000    0.47095      0.850    0    1    0    1    0    0    0    1
  rins             :          1       0.02       0.00          1          0          0    0.00000   -1.00000    0.56398      0.700    0    1    0    0    0    0    0    1
  mutation         :          1       0.01       0.01         23          0          0    0.00000   -1.00000    0.54428      0.700    0    1    0    0    0    0    0    1
  localbranching   :          2       0.03       0.06         60          0          0    0.00000   -1.00000    0.47045      0.850    0    1    0    1    0    0    0    1
  crossover        :          2       0.04       0.11         63          0          0    0.00000   -1.00000    0.47045      0.850    0    1    0    1    0    0    0    1
  proximity        :          2       0.05       0.14         57          0          0    0.00000   -1.00000    0.47045      0.850    0    1    0    1    0    0    0    1
  zeroobjective    :          1       0.01       0.03         51          0          0    0.00000   -1.00000    0.51398      0.700    0    1    0    0    0    0    0    1
  dins             :          2       0.04       0.07         54          0          0    0.00000   -1.00000    0.47045      0.850    0    1    0    1    0    0    0    1
  trustregion      :          0       0.00       0.00          0          0          0    0.00000   -1.00000    1.00000      0.900    0    0    0    0    0    0    0    0
Expressions        :   #IntEval  IntEvalTi   #RevProp  RevPropTi    DomReds    Cutoffs  #Estimate  EstimTime  Branching  #Simplify SimplifyTi Simplified
  pow              :          0       0.00          0       0.00          0          0          0       0.00          0          0       0.00          0
  prod             :      17820       0.00          0       0.00          0          0          0       0.00          0      10091       0.01          0
  sum              :          8       0.00          2       0.00          0          0          0       0.00          0          3       0.03          2
  var              :       4799       0.00          0       0.00          0          0          0       0.00          0      21714       0.00          0
  varidx           :          0       0.00          0       0.00          0          0          0       0.00          0          0       0.00          0
LP                 :       Time      Calls Iterations  Iter/call   Iter/sec  Time-0-It Calls-0-It    ItLimit
  primal LP        :      70.89      12224          0       0.00       0.00      70.84      12224
  dual LP          :    2416.21     212034   27391422     146.42   11336.52       9.01      24963
  lex dual LP      :       0.00          0          0       0.00          -
  barrier LP       :       0.00          0          0       0.00          -       0.00          0
  resolve instable :       0.00          0          0       0.00          -
  diving/probing LP:     386.52      32882    4462876     135.72   11546.30
  strong branching :      11.25        917     134084     146.22   11918.58          -          -        572
    (at root node) :          -         20       3089     154.45          -
  conflict analysis:       7.30       7295      68282       9.36    9353.70
NLP relaxation     :
  solve time       :      13.59 (21 calls)
  convexity        :  nonconvex (145 linear rows, 0 convex ineq., 0 nonconvex ineq., 1181 nonlinear eq. or two-sided ineq.)
NLP Solvers        :  #Problems  ProblemTi    #Solves  SolveTime      #Iter  Time/Iter      #Okay #TimeLimit #IterLimit #LObjLimit #Interrupt  #NumError #EvalError  #OutOfMem #LicenseEr #OtherTerm   #GlobOpt    #LocOpt  #Feasible #LocInfeas #GlobInfea #Unbounded   #Unknown
  ipopt            :         12       5.56         58      76.80       1770       0.04         56          0          2          0          0          0          0          0          0          0          0         37          0         18          0          0          3
B&B Tree           :
  number of runs   :          1
  nodes            :     163919 (113967 internal, 49952 leaves)
  feasible leaves  :          0
  infeas. leaves   :         35
  objective leaves :      49916
  nodes (total)    :     163919 (113967 internal, 49952 leaves)
  nodes left       :      60442
  max depth        :         79
  max depth (total):         79
  backtracks       :      33331 (20.3%)
  early backtracks :          0 (0.0%)
  nodes exc. ref.  :          0 (0.0%)
  delayed cutoffs  :          0
  repropagations   :       6324 (354 domain reductions, 0 cutoffs)
  avg switch length:       7.01
  switching time   :     107.93
Estim. Tree Size   :     334986
Estimation Tree    : 227935 nodes (167493 visited, 113967 internal, 53526 leaves, 60442 open), weight: 0.0000 completed 0.1020
Estimations        :      estim      value      trend resolution     smooth
  wbe              : 8295646941064969216          -          -          -          -
  tree-profile     :         -1          -          -          -          -
  gap              :    7577947    0.60034    0.00001         64    7363331
  tree-weight      :     334986    0.00000    0.00000         64     334609
  leaf-frequency   :     334986    0.31957   -0.00002         64     334609
  ssg              :   17208110    0.83894   -0.00001         64   16763596
  open-nodes       :     334986 60442.00000  121.48375         64     334609
Root Node          :
  First LP value   : -5.55465768799102e+00
  First LP Iters   :       2240 (11789.47 Iter/sec)
  First LP Time    :       0.19
  Final Dual Bound : -5.42818989574291e+00
  Final Root Iters :       2821
  Root LP Estimate : -2.63165330971586e+00
Solution           :
  Solutions found  :        145 (18 improvements)
  First Solution   : +1.00000000000000e+05   (in run 1, after 0 nodes, 0.06 seconds, depth 0, found by <trivial>)
  Gap First Sol.   :   infinite
  Gap Last Sol.    :      66.76 %
  Primal Bound     : -2.99551066217733e+00   (in run 1, after 145078 nodes, 2190.14 seconds, depth 42, found by <crossover>)
  Dual Bound       : -4.98966219285314e+00
  Gap              :      66.57 %
Integrals          :      Total       Avg%
  primal-dual      :  147665.44      41.02
  primal-ref       :          -          - (not evaluated)
  dual-ref         :          -          - (not evaluated)
